c
c Sudoku2DIMACS
p cnf 64 149
1 0
10 0
22 0
43 0
64 0
-1 -2 0
-1 -3 0
-1 -4 0
-2 -3 0
-2 -4 0
-3 -4 0
13 9 5 1 0
49 33 17 1 0
-5 -6 0
-5 -7 0
-5 -8 0
-6 -7 0
-6 -8 0
-7 -8 0
14 10 6 2 0
50 34 18 2 0
-9 -10 0
-9 -11 0
-9 -12 0
-10 -11 0
-10 -12 0
-11 -12 0
15 11 7 3 0
51 35 19 3 0
-13 -14 0
-13 -15 0
-13 -16 0
-14 -15 0
-14 -16 0
-15 -16 0
16 12 8 4 0
52 36 20 4 0
-17 -18 0
-17 -19 0
-17 -20 0
-18 -19 0
-18 -20 0
-19 -20 0
29 25 21 17 0
53 37 21 5 0
-21 -22 0
-21 -23 0
-21 -24 0
-22 -23 0
-22 -24 0
-23 -24 0
30 26 22 18 0
54 38 22 6 0
-25 -26 0
-25 -27 0
-25 -28 0
-26 -27 0
-26 -28 0
-27 -28 0
31 27 23 19 0
55 39 23 7 0
-29 -30 0
-29 -31 0
-29 -32 0
-30 -31 0
-30 -32 0
-31 -32 0
32 28 24 20 0
56 40 24 8 0
-33 -34 0
-33 -35 0
-33 -36 0
-34 -35 0
-34 -36 0
-35 -36 0
45 41 37 33 0
57 41 25 9 0
-37 -38 0
-37 -39 0
-37 -40 0
-38 -39 0
-38 -40 0
-39 -40 0
46 42 38 34 0
58 42 26 10 0
-41 -42 0
-41 -43 0
-41 -44 0
-42 -43 0
-42 -44 0
-43 -44 0
47 43 39 35 0
59 43 27 11 0
-45 -46 0
-45 -47 0
-45 -48 0
-46 -47 0
-46 -48 0
-47 -48 0
48 44 40 36 0
60 44 28 12 0
-49 -50 0
-49 -51 0
-49 -52 0
-50 -51 0
-50 -52 0
-51 -52 0
61 57 53 49 0
61 45 29 13 0
-53 -54 0
-53 -55 0
-53 -56 0
-54 -55 0
-54 -56 0
-55 -56 0
62 58 54 50 0
62 46 30 14 0
-57 -58 0
-57 -59 0
-57 -60 0
-58 -59 0
-58 -60 0
-59 -60 0
63 59 55 51 0
63 47 31 15 0
-61 -62 0
-61 -63 0
-61 -64 0
-62 -63 0
-62 -64 0
-63 -64 0
64 60 56 52 0
64 48 32 16 0
21 17 5 1 0
29 25 13 9 0
53 49 37 33 0
61 57 45 41 0
22 18 6 2 0
30 26 14 10 0
54 50 38 34 0
62 58 46 42 0
23 19 7 3 0
31 27 15 11 0
55 51 39 35 0
63 59 47 43 0
24 20 8 4 0
32 28 16 12 0
56 52 40 36 0
64 60 48 44 0
